%%%mzn-stat: initTime=0.001477654
%%%mzn-stat: objective=679
%%%mzn-stat: nodes=933
%%%mzn-stat: restarts=0
%%%mzn-stat: peakDepth=75
%%%mzn-stat: solveTime=0.042873256
%%%mzn-stat: variables=209
%%%mzn-stat: propagators=129
%%%mzn-stat: failures=820
%%%mzn-stat: propagations=44870
%%%mzn-stat: nogoods=820
%%%mzn-stat: AverageConflictSize=3.8097560975609754
%%%mzn-stat: NumUnitNogoodsLearned=678
%%%mzn-stat: AverageLearnedNogoodLength=2.6658536585365855
%%%mzn-stat: AverageBacktrackAmount=0
%%%mzn-stat: AverageLbd=1.5902439024390245
%%%mzn-stat-end
maxleg = 679;
succ = array1d(1..20,[16, 19, 8, 1, 15, 7, 13, 4, 20, 6, 9, 2, 11, 3, 17, 12, 10, 14, 5, 18]);
% time elapsed: 2.85 s
----------
==========
% time elapsed: 2.85 s
%%%mzn-stat: initTime=0.001477654
%%%mzn-stat: objective=679
%%%mzn-stat: nodes=933
%%%mzn-stat: restarts=0
%%%mzn-stat: peakDepth=75
%%%mzn-stat: solveTime=0.042882304
%%%mzn-stat: variables=209
%%%mzn-stat: propagators=129
%%%mzn-stat: failures=820
%%%mzn-stat: propagations=44870
%%%mzn-stat: nogoods=820
%%%mzn-stat: AverageConflictSize=3.8097560975609754
%%%mzn-stat: NumUnitNogoodsLearned=678
%%%mzn-stat: AverageLearnedNogoodLength=2.6658536585365855
%%%mzn-stat: AverageBacktrackAmount=0
%%%mzn-stat: AverageLbd=1.5902439024390245
%%%mzn-stat-end
